declmtd/1hw/micro.cnf
c micro.cnf
c Auto-generated DIMACS CNF file created by convertToDIMACS
p cnf 224 2868
1 0 
2 0 
3 0 
4 0 
5 0 
6 7 8 9 10 11 12 13 14 15 16 17 18 19 20 21 22 23 24 25 26 27 28 29 30 31 0 
-32 0 
33 34 35 36 37 38 39 40 41 42 43 44 45 46 47 48 49 50 51 52 53 54 55 56 57 58 0 
-59 0 
60 0 
61 0 
62 63 64 65 66 67 68 69 70 71 72 73 74 75 76 77 78 79 80 81 82 83 84 85 86 87 0 
-88 0 
89 90 91 92 93 94 95 96 97 98 99 100 101 102 103 104 105 106 107 108 109 110 111 112 113 114 0 
-115 0 
116 0 
117 0 
118 0 
119 0 
120 0 
-6 -7 0 
-6 -8 0 
-6 -9 0 
-6 -10 0 
-6 -11 0 
-6 -12 0 
-6 -13 0 
-6 -14 0 
-6 -15 0 
-6 -16 0 
-6 -17 0 
-6 -18 0 
-6 -19 0 
-6 -20 0 
-6 -21 0 
-6 -22 0 
-6 -23 0 
-6 -24 0 
-6 -25 0 
-6 -26 0 
-6 -27 0 
-6 -28 0 
-6 -29 0 
-6 -30 0 
-6 -31 0 
-7 -6 0 
-7 -8 0 
-7 -9 0 
-7 -10 0 
-7 -11 0 
-7 -12 0 
-7 -13 0 
-7 -14 0 
-7 -15 0 
-7 -16 0 
-7 -17 0 
-7 -18 0 
-7 -19 0 
-7 -20 0 
-7 -21 0 
-7 -22 0 
-7 -23 0 
-7 -24 0 
-7 -25 0 
-7 -26 0 
-7 -27 0 
-7 -28 0 
-7 -29 0 
-7 -30 0 
-7 -31 0 
-8 -6 0 
-8 -7 0 
-8 -9 0 
-8 -10 0 
-8 -11 0 
-8 -12 0 
-8 -13 0 
-8 -14 0 
-8 -15 0 
-8 -16 0 
-8 -17 0 
-8 -18 0 
-8 -19 0 
-8 -20 0 
-8 -21 0 
-8 -22 0 
-8 -23 0 
-8 -24 0 
-8 -25 0 
-8 -26 0 
-8 -27 0 
-8 -28 0 
-8 -29 0 
-8 -30 0 
-8 -31 0 
-9 -6 0 
-9 -7 0 
-9 -8 0 
-9 -10 0 
-9 -11 0 
-9 -12 0 
-9 -13 0 
-9 -14 0 
-9 -15 0 
-9 -16 0 
-9 -17 0 
-9 -18 0 
-9 -19 0 
-9 -20 0 
-9 -21 0 
-9 -22 0 
-9 -23 0 
-9 -24 0 
-9 -25 0 
-9 -26 0 
-9 -27 0 
-9 -28 0 
-9 -29 0 
-9 -30 0 
-9 -31 0 
-10 -6 0 
-10 -7 0 
-10 -8 0 
-10 -9 0 
-10 -11 0 
-10 -12 0 
-10 -13 0 
-10 -14 0 
-10 -15 0 
-10 -16 0 
-10 -17 0 
-10 -18 0 
-10 -19 0 
-10 -20 0 
-10 -21 0 
-10 -22 0 
-10 -23 0 
-10 -24 0 
-10 -25 0 
-10 -26 0 
-10 -27 0 
-10 -28 0 
-10 -29 0 
-10 -30 0 
-10 -31 0 
-11 -6 0 
-11 -7 0 
-11 -8 0 
-11 -9 0 
-11 -10 0 
-11 -12 0 
-11 -13 0 
-11 -14 0 
-11 -15 0 
-11 -16 0 
-11 -17 0 
-11 -18 0 
-11 -19 0 
-11 -20 0 
-11 -21 0 
-11 -22 0 
-11 -23 0 
-11 -24 0 
-11 -25 0 
-11 -26 0 
-11 -27 0 
-11 -28 0 
-11 -29 0 
-11 -30 0 
-11 -31 0 
-12 -6 0 
-12 -7 0 
-12 -8 0 
-12 -9 0 
-12 -10 0 
-12 -11 0 
-12 -13 0 
-12 -14 0 
-12 -15 0 
-12 -16 0 
-12 -17 0 
-12 -18 0 
-12 -19 0 
-12 -20 0 
-12 -21 0 
-12 -22 0 
-12 -23 0 
-12 -24 0 
-12 -25 0 
-12 -26 0 
-12 -27 0 
-12 -28 0 
-12 -29 0 
-12 -30 0 
-12 -31 0 
-13 -6 0 
-13 -7 0 
-13 -8 0 
-13 -9 0 
-13 -10 0 
-13 -11 0 
-13 -12 0 
-13 -14 0 
-13 -15 0 
-13 -16 0 
-13 -17 0 
-13 -18 0 
-13 -19 0 
-13 -20 0 
-13 -21 0 
-13 -22 0 
-13 -23 0 
-13 -24 0 
-13 -25 0 
-13 -26 0 
-13 -27 0 
-13 -28 0 
-13 -29 0 
-13 -30 0 
-13 -31 0 
-14 -6 0 
-14 -7 0 
-14 -8 0 
-14 -9 0 
-14 -10 0 
-14 -11 0 
-14 -12 0 
-14 -13 0 
-14 -15 0 
-14 -16 0 
-14 -17 0 
-14 -18 0 
-14 -19 0 
-14 -20 0 
-14 -21 0 
-14 -22 0 
-14 -23 0 
-14 -24 0 
-14 -25 0 
-14 -26 0 
-14 -27 0 
-14 -28 0 
-14 -29 0 
-14 -30 0 
-14 -31 0 
-15 -6 0 
-15 -7 0 
-15 -8 0 
-15 -9 0 
-15 -10 0 
-15 -11 0 
-15 -12 0 
-15 -13 0 
-15 -14 0 
-15 -16 0 
-15 -17 0 
-15 -18 0 
-15 -19 0 
-15 -20 0 
-15 -21 0 
-15 -22 0 
-15 -23 0 
-15 -24 0 
-15 -25 0 
-15 -26 0 
-15 -27 0 
-15 -28 0 
-15 -29 0 
-15 -30 0 
-15 -31 0 
-16 -6 0 
-16 -7 0 
-16 -8 0 
-16 -9 0 
-16 -10 0 
-16 -11 0 
-16 -12 0 
-16 -13 0 
-16 -14 0 
-16 -15 0 
-16 -17 0 
-16 -18 0 
-16 -19 0 
-16 -20 0 
-16 -21 0 
-16 -22 0 
-16 -23 0 
-16 -24 0 
-16 -25 0 
-16 -26 0 
-16 -27 0 
-16 -28 0 
-16 -29 0 
-16 -30 0 
-16 -31 0 
-17 -6 0 
-17 -7 0 
-17 -8 0 
-17 -9 0 
-17 -10 0 
-17 -11 0 
-17 -12 0 
-17 -13 0 
-17 -14 0 
-17 -15 0 
-17 -16 0 
-17 -18 0 
-17 -19 0 
-17 -20 0 
-17 -21 0 
-17 -22 0 
-17 -23 0 
-17 -24 0 
-17 -25 0 
-17 -26 0 
-17 -27 0 
-17 -28 0 
-17 -29 0 
-17 -30 0 
-17 -31 0 
-18 -6 0 
-18 -7 0 
-18 -8 0 
-18 -9 0 
-18 -10 0 
-18 -11 0 
-18 -12 0 
-18 -13 0 
-18 -14 0 
-18 -15 0 
-18 -16 0 
-18 -17 0 
-18 -19 0 
-18 -20 0 
-18 -21 0 
-18 -22 0 
-18 -23 0 
-18 -24 0 
-18 -25 0 
-18 -26 0 
-18 -27 0 
-18 -28 0 
-18 -29 0 
-18 -30 0 
-18 -31 0 
-19 -6 0 
-19 -7 0 
-19 -8 0 
-19 -9 0 
-19 -10 0 
-19 -11 0 
-19 -12 0 
-19 -13 0 
-19 -14 0 
-19 -15 0 
-19 -16 0 
-19 -17 0 
-19 -18 0 
-19 -20 0 
-19 -21 0 
-19 -22 0 
-19 -23 0 
-19 -24 0 
-19 -25 0 
-19 -26 0 
-19 -27 0 
-19 -28 0 
-19 -29 0 
-19 -30 0 
-19 -31 0 
-20 -6 0 
-20 -7 0 
-20 -8 0 
-20 -9 0 
-20 -10 0 
-20 -11 0 
-20 -12 0 
-20 -13 0 
-20 -14 0 
-20 -15 0 
-20 -16 0 
-20 -17 0 
-20 -18 0 
-20 -19 0 
-20 -21 0 
-20 -22 0 
-20 -23 0 
-20 -24 0 
-20 -25 0 
-20 -26 0 
-20 -27 0 
-20 -28 0 
-20 -29 0 
-20 -30 0 
-20 -31 0 
-21 -6 0 
-21 -7 0 
-21 -8 0 
-21 -9 0 
-21 -10 0 
-21 -11 0 
-21 -12 0 
-21 -13 0 
-21 -14 0 
-21 -15 0 
-21 -16 0 
-21 -17 0 
-21 -18 0 
-21 -19 0 
-21 -20 0 
-21 -22 0 
-21 -23 0 
-21 -24 0 
-21 -25 0 
-21 -26 0 
-21 -27 0 
-21 -28 0 
-21 -29 0 
-21 -30 0 
-21 -31 0 
-22 -6 0 
-22 -7 0 
-22 -8 0 
-22 -9 0 
-22 -10 0 
-22 -11 0 
-22 -12 0 
-22 -13 0 
-22 -14 0 
-22 -15 0 
-22 -16 0 
-22 -17 0 
-22 -18 0 
-22 -19 0 
-22 -20 0 
-22 -21 0 
-22 -23 0 
-22 -24 0 
-22 -25 0 
-22 -26 0 
-22 -27 0 
-22 -28 0 
-22 -29 0 
-22 -30 0 
-22 -31 0 
-23 -6 0 
-23 -7 0 
-23 -8 0 
-23 -9 0 
-23 -10 0 
-23 -11 0 
-23 -12 0 
-23 -13 0 
-23 -14 0 
-23 -15 0 
-23 -16 0 
-23 -17 0 
-23 -18 0 
-23 -19 0 
-23 -20 0 
-23 -21 0 
-23 -22 0 
-23 -24 0 
-23 -25 0 
-23 -26 0 
-23 -27 0 
-23 -28 0 
-23 -29 0 
-23 -30 0 
-23 -31 0 
-24 -6 0 
-24 -7 0 
-24 -8 0 
-24 -9 0 
-24 -10 0 
-24 -11 0 
-24 -12 0 
-24 -13 0 
-24 -14 0 
-24 -15 0 
-24 -16 0 
-24 -17 0 
-24 -18 0 
-24 -19 0 
-24 -20 0 
-24 -21 0 
-24 -22 0 
-24 -23 0 
-24 -25 0 
-24 -26 0 
-24 -27 0 
-24 -28 0 
-24 -29 0 
-24 -30 0 
-24 -31 0 
-25 -6 0 
-25 -7 0 
-25 -8 0 
-25 -9 0 
-25 -10 0 
-25 -11 0 
-25 -12 0 
-25 -13 0 
-25 -14 0 
-25 -15 0 
-25 -16 0 
-25 -17 0 
-25 -18 0 
-25 -19 0 
-25 -20 0 
-25 -21 0 
-25 -22 0 
-25 -23 0 
-25 -24 0 
-25 -26 0 
-25 -27 0 
-25 -28 0 
-25 -29 0 
-25 -30 0 
-25 -31 0 
-26 -6 0 
-26 -7 0 
-26 -8 0 
-26 -9 0 
-26 -10 0 
-26 -11 0 
-26 -12 0 
-26 -13 0 
-26 -14 0 
-26 -15 0 
-26 -16 0 
-26 -17 0 
-26 -18 0 
-26 -19 0 
-26 -20 0 
-26 -21 0 
-26 -22 0 
-26 -23 0 
-26 -24 0 
-26 -25 0 
-26 -27 0 
-26 -28 0 
-26 -29 0 
-26 -30 0 
-26 -31 0 
-27 -6 0 
-27 -7 0 
-27 -8 0 
-27 -9 0 
-27 -10 0 
-27 -11 0 
-27 -12 0 
-27 -13 0 
-27 -14 0 
-27 -15 0 
-27 -16 0 
-27 -17 0 
-27 -18 0 
-27 -19 0 
-27 -20 0 
-27 -21 0 
-27 -22 0 
-27 -23 0 
-27 -24 0 
-27 -25 0 
-27 -26 0 
-27 -28 0 
-27 -29 0 
-27 -30 0 
-27 -31 0 
-28 -6 0 
-28 -7 0 
-28 -8 0 
-28 -9 0 
-28 -10 0 
-28 -11 0 
-28 -12 0 
-28 -13 0 
-28 -14 0 
-28 -15 0 
-28 -16 0 
-28 -17 0 
-28 -18 0 
-28 -19 0 
-28 -20 0 
-28 -21 0 
-28 -22 0 
-28 -23 0 
-28 -24 0 
-28 -25 0 
-28 -26 0 
-28 -27 0 
-28 -29 0 
-28 -30 0 
-28 -31 0 
-29 -6 0 
-29 -7 0 
-29 -8 0 
-29 -9 0 
-29 -10 0 
-29 -11 0 
-29 -12 0 
-29 -13 0 
-29 -14 0 
-29 -15 0 
-29 -16 0 
-29 -17 0 
-29 -18 0 
-29 -19 0 
-29 -20 0 
-29 -21 0 
-29 -22 0 
-29 -23 0 
-29 -24 0 
-29 -25 0 
-29 -26 0 
-29 -27 0 
-29 -28 0 
-29 -30 0 
-29 -31 0 
-30 -6 0 
-30 -7 0 
-30 -8 0 
-30 -9 0 
-30 -10 0 
-30 -11 0 
-30 -12 0 
-30 -13 0 
-30 -14 0 
-30 -15 0 
-30 -16 0 
-30 -17 0 
-30 -18 0 
-30 -19 0 
-30 -20 0 
-30 -21 0 
-30 -22 0 
-30 -23 0 
-30 -24 0 
-30 -25 0 
-30 -26 0 
-30 -27 0 
-30 -28 0 
-30 -29 0 
-30 -31 0 
-31 -6 0 
-31 -7 0 
-31 -8 0 
-31 -9 0 
-31 -10 0 
-31 -11 0 
-31 -12 0 
-31 -13 0 
-31 -14 0 
-31 -15 0 
-31 -16 0 
-31 -17 0 
-31 -18 0 
-31 -19 0 
-31 -20 0 
-31 -21 0 
-31 -22 0 
-31 -23 0 
-31 -24 0 
-31 -25 0 
-31 -26 0 
-31 -27 0 
-31 -28 0 
-31 -29 0 
-31 -30 0 
-33 -34 0 
-33 -35 0 
-33 -36 0 
-33 -37 0 
-33 -38 0 
-33 -39 0 
-33 -40 0 
-33 -41 0 
-33 -42 0 
-33 -43 0 
-33 -44 0 
-33 -45 0 
-33 -46 0 
-33 -47 0 
-33 -48 0 
-33 -49 0 
-33 -50 0 
-33 -51 0 
-33 -52 0 
-33 -53 0 
-33 -54 0 
-33 -55 0 
-33 -56 0 
-33 -57 0 
-33 -58 0 
-34 -33 0 
-34 -35 0 
-34 -36 0 
-34 -37 0 
-34 -38 0 
-34 -39 0 
-34 -40 0 
-34 -41 0 
-34 -42 0 
-34 -43 0 
-34 -44 0 
-34 -45 0 
-34 -46 0 
-34 -47 0 
-34 -48 0 
-34 -49 0 
-34 -50 0 
-34 -51 0 
-34 -52 0 
-34 -53 0 
-34 -54 0 
-34 -55 0 
-34 -56 0 
-34 -57 0 
-34 -58 0 
-35 -33 0 
-35 -34 0 
-35 -36 0 
-35 -37 0 
-35 -38 0 
-35 -39 0 
-35 -40 0 
-35 -41 0 
-35 -42 0 
-35 -43 0 
-35 -44 0 
-35 -45 0 
-35 -46 0 
-35 -47 0 
-35 -48 0 
-35 -49 0 
-35 -50 0 
-35 -51 0 
-35 -52 0 
-35 -53 0 
-35 -54 0 
-35 -55 0 
-35 -56 0 
-35 -57 0 
-35 -58 0 
-36 -33 0 
-36 -34 0 
-36 -35 0 
-36 -37 0 
-36 -38 0 
-36 -39 0 
-36 -40 0 
-36 -41 0 
-36 -42 0 
-36 -43 0 
-36 -44 0 
-36 -45 0 
-36 -46 0 
-36 -47 0 
-36 -48 0 
-36 -49 0 
-36 -50 0 
-36 -51 0 
-36 -52 0 
-36 -53 0 
-36 -54 0 
-36 -55 0 
-36 -56 0 
-36 -57 0 
-36 -58 0 
-37 -33 0 
-37 -34 0 
-37 -35 0 
-37 -36 0 
-37 -38 0 
-37 -39 0 
-37 -40 0 
-37 -41 0 
-37 -42 0 
-37 -43 0 
-37 -44 0 
-37 -45 0 
-37 -46 0 
-37 -47 0 
-37 -48 0 
-37 -49 0 
-37 -50 0 
-37 -51 0 
-37 -52 0 
-37 -53 0 
-37 -54 0 
-37 -55 0 
-37 -56 0 
-37 -57 0 
-37 -58 0 
-38 -33 0 
-38 -34 0 
-38 -35 0 
-38 -36 0 
-38 -37 0 
-38 -39 0 
-38 -40 0 
-38 -41 0 
-38 -42 0 
-38 -43 0 
-38 -44 0 
-38 -45 0 
-38 -46 0 
-38 -47 0 
-38 -48 0 
-38 -49 0 
-38 -50 0 
-38 -51 0 
-38 -52 0 
-38 -53 0 
-38 -54 0 
-38 -55 0 
-38 -56 0 
-38 -57 0 
-38 -58 0 
-39 -33 0 
-39 -34 0 
-39 -35 0 
-39 -36 0 
-39 -37 0 
-39 -38 0 
-39 -40 0 
-39 -41 0 
-39 -42 0 
-39 -43 0 
-39 -44 0 
-39 -45 0 
-39 -46 0 
-39 -47 0 
-39 -48 0 
-39 -49 0 
-39 -50 0 
-39 -51 0 
-39 -52 0 
-39 -53 0 
-39 -54 0 
-39 -55 0 
-39 -56 0 
-39 -57 0 
-39 -58 0 
-40 -33 0 
-40 -34 0 
-40 -35 0 
-40 -36 0 
-40 -37 0 
-40 -38 0 
-40 -39 0 
-40 -41 0 
-40 -42 0 
-40 -43 0 
-40 -44 0 
-40 -45 0 
-40 -46 0 
-40 -47 0 
-40 -48 0 
-40 -49 0 
-40 -50 0 
-40 -51 0 
-40 -52 0 
-40 -53 0 
-40 -54 0 
-40 -55 0 
-40 -56 0 
-40 -57 0 
-40 -58 0 
-41 -33 0 
-41 -34 0 
-41 -35 0 
-41 -36 0 
-41 -37 0 
-41 -38 0 
-41 -39 0 
-41 -40 0 
-41 -42 0 
-41 -43 0 
-41 -44 0 
-41 -45 0 
-41 -46 0 
-41 -47 0 
-41 -48 0 
-41 -49 0 
-41 -50 0 
-41 -51 0 
-41 -52 0 
-41 -53 0 
-41 -54 0 
-41 -55 0 
-41 -56 0 
-41 -57 0 
-41 -58 0 
-42 -33 0 
-42 -34 0 
-42 -35 0 
-42 -36 0 
-42 -37 0 
-42 -38 0 
-42 -39 0 
-42 -40 0 
-42 -41 0 
-42 -43 0 
-42 -44 0 
-42 -45 0 
-42 -46 0 
-42 -47 0 
-42 -48 0 
-42 -49 0 
-42 -50 0 
-42 -51 0 
-42 -52 0 
-42 -53 0 
-42 -54 0 
-42 -55 0 
-42 -56 0 
-42 -57 0 
-42 -58 0 
-43 -33 0 
-43 -34 0 
-43 -35 0 
-43 -36 0 
-43 -37 0 
-43 -38 0 
-43 -39 0 
-43 -40 0 
-43 -41 0 
-43 -42 0 
-43 -44 0 
-43 -45 0 
-43 -46 0 
-43 -47 0 
-43 -48 0 
-43 -49 0 
-43 -50 0 
-43 -51 0 
-43 -52 0 
-43 -53 0 
-43 -54 0 
-43 -55 0 
-43 -56 0 
-43 -57 0 
-43 -58 0 
-44 -33 0 
-44 -34 0 
-44 -35 0 
-44 -36 0 
-44 -37 0 
-44 -38 0 
-44 -39 0 
-44 -40 0 
-44 -41 0 
-44 -42 0 
-44 -43 0 
-44 -45 0 
-44 -46 0 
-44 -47 0 
-44 -48 0 
-44 -49 0 
-44 -50 0 
-44 -51 0 
-44 -52 0 
-44 -53 0 
-44 -54 0 
-44 -55 0 
-44 -56 0 
-44 -57 0 
-44 -58 0 
-45 -33 0 
-45 -34 0 
-45 -35 0 
-45 -36 0 
-45 -37 0 
-45 -38 0 
-45 -39 0 
-45 -40 0 
-45 -41 0 
-45 -42 0 
-45 -43 0 
-45 -44 0 
-45 -46 0 
-45 -47 0 
-45 -48 0 
-45 -49 0 
-45 -50 0 
-45 -51 0 
-45 -52 0 
-45 -53 0 
-45 -54 0 
-45 -55 0 
-45 -56 0 
-45 -57 0 
-45 -58 0 
-46 -33 0 
-46 -34 0 
-46 -35 0 
-46 -36 0 
-46 -37 0 
-46 -38 0 
-46 -39 0 
-46 -40 0 
-46 -41 0 
-46 -42 0 
-46 -43 0 
-46 -44 0 
-46 -45 0 
-46 -47 0 
-46 -48 0 
-46 -49 0 
-46 -50 0 
-46 -51 0 
-46 -52 0 
-46 -53 0 
-46 -54 0 
-46 -55 0 
-46 -56 0 
-46 -57 0 
-46 -58 0 
-47 -33 0 
-47 -34 0 
-47 -35 0 
-47 -36 0 
-47 -37 0 
-47 -38 0 
-47 -39 0 
-47 -40 0 
-47 -41 0 
-47 -42 0 
-47 -43 0 
-47 -44 0 
-47 -45 0 
-47 -46 0 
-47 -48 0 
-47 -49 0 
-47 -50 0 
-47 -51 0 
-47 -52 0 
-47 -53 0 
-47 -54 0 
-47 -55 0 
-47 -56 0 
-47 -57 0 
-47 -58 0 
-48 -33 0 
-48 -34 0 
-48 -35 0 
-48 -36 0 
-48 -37 0 
-48 -38 0 
-48 -39 0 
-48 -40 0 
-48 -41 0 
-48 -42 0 
-48 -43 0 
-48 -44 0 
-48 -45 0 
-48 -46 0 
-48 -47 0 
-48 -49 0 
-48 -50 0 
-48 -51 0 
-48 -52 0 
-48 -53 0 
-48 -54 0 
-48 -55 0 
-48 -56 0 
-48 -57 0 
-48 -58 0 
-49 -33 0 
-49 -34 0 
-49 -35 0 
-49 -36 0 
-49 -37 0 
-49 -38 0 
-49 -39 0 
-49 -40 0 
-49 -41 0 
-49 -42 0 
-49 -43 0 
-49 -44 0 
-49 -45 0 
-49 -46 0 
-49 -47 0 
-49 -48 0 
-49 -50 0 
-49 -51 0 
-49 -52 0 
-49 -53 0 
-49 -54 0 
-49 -55 0 
-49 -56 0 
-49 -57 0 
-49 -58 0 
-50 -33 0 
-50 -34 0 
-50 -35 0 
-50 -36 0 
-50 -37 0 
-50 -38 0 
-50 -39 0 
-50 -40 0 
-50 -41 0 
-50 -42 0 
-50 -43 0 
-50 -44 0 
-50 -45 0 
-50 -46 0 
-50 -47 0 
-50 -48 0 
-50 -49 0 
-50 -51 0 
-50 -52 0 
-50 -53 0 
-50 -54 0 
-50 -55 0 
-50 -56 0 
-50 -57 0 
-50 -58 0 
-51 -33 0 
-51 -34 0 
-51 -35 0 
-51 -36 0 
-51 -37 0 
-51 -38 0 
-51 -39 0 
-51 -40 0 
-51 -41 0 
-51 -42 0 
-51 -43 0 
-51 -44 0 
-51 -45 0 
-51 -46 0 
-51 -47 0 
-51 -48 0 
-51 -49 0 
-51 -50 0 
-51 -52 0 
-51 -53 0 
-51 -54 0 
-51 -55 0 
-51 -56 0 
-51 -57 0 
-51 -58 0 
-52 -33 0 
-52 -34 0 
-52 -35 0 
-52 -36 0 
-52 -37 0 
-52 -38 0 
-52 -39 0 
-52 -40 0 
-52 -41 0 
-52 -42 0 
-52 -43 0 
-52 -44 0 
-52 -45 0 
-52 -46 0 
-52 -47 0 
-52 -48 0 
-52 -49 0 
-52 -50 0 
-52 -51 0 
-52 -53 0 
-52 -54 0 
-52 -55 0 
-52 -56 0 
-52 -57 0 
-52 -58 0 
-53 -33 0 
-53 -34 0 
-53 -35 0 
-53 -36 0 
-53 -37 0 
-53 -38 0 
-53 -39 0 
-53 -40 0 
-53 -41 0 
-53 -42 0 
-53 -43 0 
-53 -44 0 
-53 -45 0 
-53 -46 0 
-53 -47 0 
-53 -48 0 
-53 -49 0 
-53 -50 0 
-53 -51 0 
-53 -52 0 
-53 -54 0 
-53 -55 0 
-53 -56 0 
-53 -57 0 
-53 -58 0 
-54 -33 0 
-54 -34 0 
-54 -35 0 
-54 -36 0 
-54 -37 0 
-54 -38 0 
-54 -39 0 
-54 -40 0 
-54 -41 0 
-54 -42 0 
-54 -43 0 
-54 -44 0 
-54 -45 0 
-54 -46 0 
-54 -47 0 
-54 -48 0 
-54 -49 0 
-54 -50 0 
-54 -51 0 
-54 -52 0 
-54 -53 0 
-54 -55 0 
-54 -56 0 
-54 -57 0 
-54 -58 0 
-55 -33 0 
-55 -34 0 
-55 -35 0 
-55 -36 0 
-55 -37 0 
-55 -38 0 
-55 -39 0 
-55 -40 0 
-55 -41 0 
-55 -42 0 
-55 -43 0 
-55 -44 0 
-55 -45 0 
-55 -46 0 
-55 -47 0 
-55 -48 0 
-55 -49 0 
-55 -50 0 
-55 -51 0 
-55 -52 0 
-55 -53 0 
-55 -54 0 
-55 -56 0 
-55 -57 0 
-55 -58 0 
-56 -33 0 
-56 -34 0 
-56 -35 0 
-56 -36 0 
-56 -37 0 
-56 -38 0 
-56 -39 0 
-56 -40 0 
-56 -41 0 
-56 -42 0 
-56 -43 0 
-56 -44 0 
-56 -45 0 
-56 -46 0 
-56 -47 0 
-56 -48 0 
-56 -49 0 
-56 -50 0 
-56 -51 0 
-56 -52 0 
-56 -53 0 
-56 -54 0 
-56 -55 0 
-56 -57 0 
-56 -58 0 
-57 -33 0 
-57 -34 0 
-57 -35 0 
-57 -36 0 
-57 -37 0 
-57 -38 0 
-57 -39 0 
-57 -40 0 
-57 -41 0 
-57 -42 0 
-57 -43 0 
-57 -44 0 
-57 -45 0 
-57 -46 0 
-57 -47 0 
-57 -48 0 
-57 -49 0 
-57 -50 0 
-57 -51 0 
-57 -52 0 
-57 -53 0 
-57 -54 0 
-57 -55 0 
-57 -56 0 
-57 -58 0 
-58 -33 0 
-58 -34 0 
-58 -35 0 
-58 -36 0 
-58 -37 0 
-58 -38 0 
-58 -39 0 
-58 -40 0 
-58 -41 0 
-58 -42 0 
-58 -43 0 
-58 -44 0 
-58 -45 0 
-58 -46 0 
-58 -47 0 
-58 -48 0 
-58 -49 0 
-58 -50 0 
-58 -51 0 
-58 -52 0 
-58 -53 0 
-58 -54 0 
-58 -55 0 
-58 -56 0 
-58 -57 0 
-62 -63 0 
-62 -64 0 
-62 -65 0 
-62 -66 0 
-62 -67 0 
-62 -68 0 
-62 -69 0 
-62 -70 0 
-62 -71 0 
-62 -72 0 
-62 -73 0 
-62 -74 0 
-62 -75 0 
-62 -76 0 
-62 -77 0 
-62 -78 0 
-62 -79 0 
-62 -80 0 
-62 -81 0 
-62 -82 0 
-62 -83 0 
-62 -84 0 
-62 -85 0 
-62 -86 0 
-62 -87 0 
-63 -62 0 
-63 -64 0 
-63 -65 0 
-63 -66 0 
-63 -67 0 
-63 -68 0 
-63 -69 0 
-63 -70 0 
-63 -71 0 
-63 -72 0 
-63 -73 0 
-63 -74 0 
-63 -75 0 
-63 -76 0 
-63 -77 0 
-63 -78 0 
-63 -79 0 
-63 -80 0 
-63 -81 0 
-63 -82 0 
-63 -83 0 
-63 -84 0 
-63 -85 0 
-63 -86 0 
-63 -87 0 
-64 -62 0 
-64 -63 0 
-64 -65 0 
-64 -66 0 
-64 -67 0 
-64 -68 0 
-64 -69 0 
-64 -70 0 
-64 -71 0 
-64 -72 0 
-64 -73 0 
-64 -74 0 
-64 -75 0 
-64 -76 0 
-64 -77 0 
-64 -78 0 
-64 -79 0 
-64 -80 0 
-64 -81 0 
-64 -82 0 
-64 -83 0 
-64 -84 0 
-64 -85 0 
-64 -86 0 
-64 -87 0 
-65 -62 0 
-65 -63 0 
-65 -64 0 
-65 -66 0 
-65 -67 0 
-65 -68 0 
-65 -69 0 
-65 -70 0 
-65 -71 0 
-65 -72 0 
-65 -73 0 
-65 -74 0 
-65 -75 0 
-65 -76 0 
-65 -77 0 
-65 -78 0 
-65 -79 0 
-65 -80 0 
-65 -81 0 
-65 -82 0 
-65 -83 0 
-65 -84 0 
-65 -85 0 
-65 -86 0 
-65 -87 0 
-66 -62 0 
-66 -63 0 
-66 -64 0 
-66 -65 0 
-66 -67 0 
-66 -68 0 
-66 -69 0 
-66 -70 0 
-66 -71 0 
-66 -72 0 
-66 -73 0 
-66 -74 0 
-66 -75 0 
-66 -76 0 
-66 -77 0 
-66 -78 0 
-66 -79 0 
-66 -80 0 
-66 -81 0 
-66 -82 0 
-66 -83 0 
-66 -84 0 
-66 -85 0 
-66 -86 0 
-66 -87 0 
-67 -62 0 
-67 -63 0 
-67 -64 0 
-67 -65 0 
-67 -66 0 
-67 -68 0 
-67 -69 0 
-67 -70 0 
-67 -71 0 
-67 -72 0 
-67 -73 0 
-67 -74 0 
-67 -75 0 
-67 -76 0 
-67 -77 0 
-67 -78 0 
-67 -79 0 
-67 -80 0 
-67 -81 0 
-67 -82 0 
-67 -83 0 
-67 -84 0 
-67 -85 0 
-67 -86 0 
-67 -87 0 
-68 -62 0 
-68 -63 0 
-68 -64 0 
-68 -65 0 
-68 -66 0 
-68 -67 0 
-68 -69 0 
-68 -70 0 
-68 -71 0 
-68 -72 0 
-68 -73 0 
-68 -74 0 
-68 -75 0 
-68 -76 0 
-68 -77 0 
-68 -78 0 
-68 -79 0 
-68 -80 0 
-68 -81 0 
-68 -82 0 
-68 -83 0 
-68 -84 0 
-68 -85 0 
-68 -86 0 
-68 -87 0 
-69 -62 0 
-69 -63 0 
-69 -64 0 
-69 -65 0 
-69 -66 0 
-69 -67 0 
-69 -68 0 
-69 -70 0 
-69 -71 0 
-69 -72 0 
-69 -73 0 
-69 -74 0 
-69 -75 0 
-69 -76 0 
-69 -77 0 
-69 -78 0 
-69 -79 0 
-69 -80 0 
-69 -81 0 
-69 -82 0 
-69 -83 0 
-69 -84 0 
-69 -85 0 
-69 -86 0 
-69 -87 0 
-70 -62 0 
-70 -63 0 
-70 -64 0 
-70 -65 0 
-70 -66 0 
-70 -67 0 
-70 -68 0 
-70 -69 0 
-70 -71 0 
-70 -72 0 
-70 -73 0 
-70 -74 0 
-70 -75 0 
-70 -76 0 
-70 -77 0 
-70 -78 0 
-70 -79 0 
-70 -80 0 
-70 -81 0 
-70 -82 0 
-70 -83 0 
-70 -84 0 
-70 -85 0 
-70 -86 0 
-70 -87 0 
-71 -62 0 
-71 -63 0 
-71 -64 0 
-71 -65 0 
-71 -66 0 
-71 -67 0 
-71 -68 0 
-71 -69 0 
-71 -70 0 
-71 -72 0 
-71 -73 0 
-71 -74 0 
-71 -75 0 
-71 -76 0 
-71 -77 0 
-71 -78 0 
-71 -79 0 
-71 -80 0 
-71 -81 0 
-71 -82 0 
-71 -83 0 
-71 -84 0 
-71 -85 0 
-71 -86 0 
-71 -87 0 
-72 -62 0 
-72 -63 0 
-72 -64 0 
-72 -65 0 
-72 -66 0 
-72 -67 0 
-72 -68 0 
-72 -69 0 
-72 -70 0 
-72 -71 0 
-72 -73 0 
-72 -74 0 
-72 -75 0 
-72 -76 0 
-72 -77 0 
-72 -78 0 
-72 -79 0 
-72 -80 0 
-72 -81 0 
-72 -82 0 
-72 -83 0 
-72 -84 0 
-72 -85 0 
-72 -86 0 
-72 -87 0 
-73 -62 0 
-73 -63 0 
-73 -64 0 
-73 -65 0 
-73 -66 0 
-73 -67 0 
-73 -68 0 
-73 -69 0 
-73 -70 0 
-73 -71 0 
-73 -72 0 
-73 -74 0 
-73 -75 0 
-73 -76 0 
-73 -77 0 
-73 -78 0 
-73 -79 0 
-73 -80 0 
-73 -81 0 
-73 -82 0 
-73 -83 0 
-73 -84 0 
-73 -85 0 
-73 -86 0 
-73 -87 0 
-74 -62 0 
-74 -63 0 
-74 -64 0 
-74 -65 0 
-74 -66 0 
-74 -67 0 
-74 -68 0 
-74 -69 0 
-74 -70 0 
-74 -71 0 
-74 -72 0 
-74 -73 0 
-74 -75 0 
-74 -76 0 
-74 -77 0 
-74 -78 0 
-74 -79 0 
-74 -80 0 
-74 -81 0 
-74 -82 0 
-74 -83 0 
-74 -84 0 
-74 -85 0 
-74 -86 0 
-74 -87 0 
-75 -62 0 
-75 -63 0 
-75 -64 0 
-75 -65 0 
-75 -66 0 
-75 -67 0 
-75 -68 0 
-75 -69 0 
-75 -70 0 
-75 -71 0 
-75 -72 0 
-75 -73 0 
-75 -74 0 
-75 -76 0 
-75 -77 0 
-75 -78 0 
-75 -79 0 
-75 -80 0 
-75 -81 0 
-75 -82 0 
-75 -83 0 
-75 -84 0 
-75 -85 0 
-75 -86 0 
-75 -87 0 
-76 -62 0 
-76 -63 0 
-76 -64 0 
-76 -65 0 
-76 -66 0 
-76 -67 0 
-76 -68 0 
-76 -69 0 
-76 -70 0 
-76 -71 0 
-76 -72 0 
-76 -73 0 
-76 -74 0 
-76 -75 0 
-76 -77 0 
-76 -78 0 
-76 -79 0 
-76 -80 0 
-76 -81 0 
-76 -82 0 
-76 -83 0 
-76 -84 0 
-76 -85 0 
-76 -86 0 
-76 -87 0 
-77 -62 0 
-77 -63 0 
-77 -64 0 
-77 -65 0 
-77 -66 0 
-77 -67 0 
-77 -68 0 
-77 -69 0 
-77 -70 0 
-77 -71 0 
-77 -72 0 
-77 -73 0 
-77 -74 0 
-77 -75 0 
-77 -76 0 
-77 -78 0 
-77 -79 0 
-77 -80 0 
-77 -81 0 
-77 -82 0 
-77 -83 0 
-77 -84 0 
-77 -85 0 
-77 -86 0 
-77 -87 0 
-78 -62 0 
-78 -63 0 
-78 -64 0 
-78 -65 0 
-78 -66 0 
-78 -67 0 
-78 -68 0 
-78 -69 0 
-78 -70 0 
-78 -71 0 
-78 -72 0 
-78 -73 0 
-78 -74 0 
-78 -75 0 
-78 -76 0 
-78 -77 0 
-78 -79 0 
-78 -80 0 
-78 -81 0 
-78 -82 0 
-78 -83 0 
-78 -84 0 
-78 -85 0 
-78 -86 0 
-78 -87 0 
-79 -62 0 
-79 -63 0 
-79 -64 0 
-79 -65 0 
-79 -66 0 
-79 -67 0 
-79 -68 0 
-79 -69 0 
-79 -70 0 
-79 -71 0 
-79 -72 0 
-79 -73 0 
-79 -74 0 
-79 -75 0 
-79 -76 0 
-79 -77 0 
-79 -78 0 
-79 -80 0 
-79 -81 0 
-79 -82 0 
-79 -83 0 
-79 -84 0 
-79 -85 0 
-79 -86 0 
-79 -87 0 
-80 -62 0 
-80 -63 0 
-80 -64 0 
-80 -65 0 
-80 -66 0 
-80 -67 0 
-80 -68 0 
-80 -69 0 
-80 -70 0 
-80 -71 0 
-80 -72 0 
-80 -73 0 
-80 -74 0 
-80 -75 0 
-80 -76 0 
-80 -77 0 
-80 -78 0 
-80 -79 0 
-80 -81 0 
-80 -82 0 
-80 -83 0 
-80 -84 0 
-80 -85 0 
-80 -86 0 
-80 -87 0 
-81 -62 0 
-81 -63 0 
-81 -64 0 
-81 -65 0 
-81 -66 0 
-81 -67 0 
-81 -68 0 
-81 -69 0 
-81 -70 0 
-81 -71 0 
-81 -72 0 
-81 -73 0 
-81 -74 0 
-81 -75 0 
-81 -76 0 
-81 -77 0 
-81 -78 0 
-81 -79 0 
-81 -80 0 
-81 -82 0 
-81 -83 0 
-81 -84 0 
-81 -85 0 
-81 -86 0 
-81 -87 0 
-82 -62 0 
-82 -63 0 
-82 -64 0 
-82 -65 0 
-82 -66 0 
-82 -67 0 
-82 -68 0 
-82 -69 0 
-82 -70 0 
-82 -71 0 
-82 -72 0 
-82 -73 0 
-82 -74 0 
-82 -75 0 
-82 -76 0 
-82 -77 0 
-82 -78 0 
-82 -79 0 
-82 -80 0 
-82 -81 0 
-82 -83 0 
-82 -84 0 
-82 -85 0 
-82 -86 0 
-82 -87 0 
-83 -62 0 
-83 -63 0 
-83 -64 0 
-83 -65 0 
-83 -66 0 
-83 -67 0 
-83 -68 0 
-83 -69 0 
-83 -70 0 
-83 -71 0 
-83 -72 0 
-83 -73 0 
-83 -74 0 
-83 -75 0 
-83 -76 0 
-83 -77 0 
-83 -78 0 
-83 -79 0 
-83 -80 0 
-83 -81 0 
-83 -82 0 
-83 -84 0 
-83 -85 0 
-83 -86 0 
-83 -87 0 
-84 -62 0 
-84 -63 0 
-84 -64 0 
-84 -65 0 
-84 -66 0 
-84 -67 0 
-84 -68 0 
-84 -69 0 
-84 -70 0 
-84 -71 0 
-84 -72 0 
-84 -73 0 
-84 -74 0 
-84 -75 0 
-84 -76 0 
-84 -77 0 
-84 -78 0 
-84 -79 0 
-84 -80 0 
-84 -81 0 
-84 -82 0 
-84 -83 0 
-84 -85 0 
-84 -86 0 
-84 -87 0 
-85 -62 0 
-85 -63 0 
-85 -64 0 
-85 -65 0 
-85 -66 0 
-85 -67 0 
-85 -68 0 
-85 -69 0 
-85 -70 0 
-85 -71 0 
-85 -72 0 
-85 -73 0 
-85 -74 0 
-85 -75 0 
-85 -76 0 
-85 -77 0 
-85 -78 0 
-85 -79 0 
-85 -80 0 
-85 -81 0 
-85 -82 0 
-85 -83 0 
-85 -84 0 
-85 -86 0 
-85 -87 0 
-86 -62 0 
-86 -63 0 
-86 -64 0 
-86 -65 0 
-86 -66 0 
-86 -67 0 
-86 -68 0 
-86 -69 0 
-86 -70 0 
-86 -71 0 
-86 -72 0 
-86 -73 0 
-86 -74 0 
-86 -75 0 
-86 -76 0 
-86 -77 0 
-86 -78 0 
-86 -79 0 
-86 -80 0 
-86 -81 0 
-86 -82 0 
-86 -83 0 
-86 -84 0 
-86 -85 0 
-86 -87 0 
-87 -62 0 
-87 -63 0 
-87 -64 0 
-87 -65 0 
-87 -66 0 
-87 -67 0 
-87 -68 0 
-87 -69 0 
-87 -70 0 
-87 -71 0 
-87 -72 0 
-87 -73 0 
-87 -74 0 
-87 -75 0 
-87 -76 0 
-87 -77 0 
-87 -78 0 
-87 -79 0 
-87 -80 0 
-87 -81 0 
-87 -82 0 
-87 -83 0 
-87 -84 0 
-87 -85 0 
-87 -86 0 
-89 -90 0 
-89 -91 0 
-89 -92 0 
-89 -93 0 
-89 -94 0 
-89 -95 0 
-89 -96 0 
-89 -97 0 
-89 -98 0 
-89 -99 0 
-89 -100 0 
-89 -101 0 
-89 -102 0 
-89 -103 0 
-89 -104 0 
-89 -105 0 
-89 -106 0 
-89 -107 0 
-89 -108 0 
-89 -109 0 
-89 -110 0 
-89 -111 0 
-89 -112 0 
-89 -113 0 
-89 -114 0 
-90 -89 0 
-90 -91 0 
-90 -92 0 
-90 -93 0 
-90 -94 0 
-90 -95 0 
-90 -96 0 
-90 -97 0 
-90 -98 0 
-90 -99 0 
-90 -100 0 
-90 -101 0 
-90 -102 0 
-90 -103 0 
-90 -104 0 
-90 -105 0 
-90 -106 0 
-90 -107 0 
-90 -108 0 
-90 -109 0 
-90 -110 0 
-90 -111 0 
-90 -112 0 
-90 -113 0 
-90 -114 0 
-91 -89 0 
-91 -90 0 
-91 -92 0 
-91 -93 0 
-91 -94 0 
-91 -95 0 
-91 -96 0 
-91 -97 0 
-91 -98 0 
-91 -99 0 
-91 -100 0 
-91 -101 0 
-91 -102 0 
-91 -103 0 
-91 -104 0 
-91 -105 0 
-91 -106 0 
-91 -107 0 
-91 -108 0 
-91 -109 0 
-91 -110 0 
-91 -111 0 
-91 -112 0 
-91 -113 0 
-91 -114 0 
-92 -89 0 
-92 -90 0 
-92 -91 0 
-92 -93 0 
-92 -94 0 
-92 -95 0 
-92 -96 0 
-92 -97 0 
-92 -98 0 
-92 -99 0 
-92 -100 0 
-92 -101 0 
-92 -102 0 
-92 -103 0 
-92 -104 0 
-92 -105 0 
-92 -106 0 
-92 -107 0 
-92 -108 0 
-92 -109 0 
-92 -110 0 
-92 -111 0 
-92 -112 0 
-92 -113 0 
-92 -114 0 
-93 -89 0 
-93 -90 0 
-93 -91 0 
-93 -92 0 
-93 -94 0 
-93 -95 0 
-93 -96 0 
-93 -97 0 
-93 -98 0 
-93 -99 0 
-93 -100 0 
-93 -101 0 
-93 -102 0 
-93 -103 0 
-93 -104 0 
-93 -105 0 
-93 -106 0 
-93 -107 0 
-93 -108 0 
-93 -109 0 
-93 -110 0 
-93 -111 0 
-93 -112 0 
-93 -113 0 
-93 -114 0 
-94 -89 0 
-94 -90 0 
-94 -91 0 
-94 -92 0 
-94 -93 0 
-94 -95 0 
-94 -96 0 
-94 -97 0 
-94 -98 0 
-94 -99 0 
-94 -100 0 
-94 -101 0 
-94 -102 0 
-94 -103 0 
-94 -104 0 
-94 -105 0 
-94 -106 0 
-94 -107 0 
-94 -108 0 
-94 -109 0 
-94 -110 0 
-94 -111 0 
-94 -112 0 
-94 -113 0 
-94 -114 0 
-95 -89 0 
-95 -90 0 
-95 -91 0 
-95 -92 0 
-95 -93 0 
-95 -94 0 
-95 -96 0 
-95 -97 0 
-95 -98 0 
-95 -99 0 
-95 -100 0 
-95 -101 0 
-95 -102 0 
-95 -103 0 
-95 -104 0 
-95 -105 0 
-95 -106 0 
-95 -107 0 
-95 -108 0 
-95 -109 0 
-95 -110 0 
-95 -111 0 
-95 -112 0 
-95 -113 0 
-95 -114 0 
-96 -89 0 
-96 -90 0 
-96 -91 0 
-96 -92 0 
-96 -93 0 
-96 -94 0 
-96 -95 0 
-96 -97 0 
-96 -98 0 
-96 -99 0 
-96 -100 0 
-96 -101 0 
-96 -102 0 
-96 -103 0 
-96 -104 0 
-96 -105 0 
-96 -106 0 
-96 -107 0 
-96 -108 0 
-96 -109 0 
-96 -110 0 
-96 -111 0 
-96 -112 0 
-96 -113 0 
-96 -114 0 
-97 -89 0 
-97 -90 0 
-97 -91 0 
-97 -92 0 
-97 -93 0 
-97 -94 0 
-97 -95 0 
-97 -96 0 
-97 -98 0 
-97 -99 0 
-97 -100 0 
-97 -101 0 
-97 -102 0 
-97 -103 0 
-97 -104 0 
-97 -105 0 
-97 -106 0 
-97 -107 0 
-97 -108 0 
-97 -109 0 
-97 -110 0 
-97 -111 0 
-97 -112 0 
-97 -113 0 
-97 -114 0 
-98 -89 0 
-98 -90 0 
-98 -91 0 
-98 -92 0 
-98 -93 0 
-98 -94 0 
-98 -95 0 
-98 -96 0 
-98 -97 0 
-98 -99 0 
-98 -100 0 
-98 -101 0 
-98 -102 0 
-98 -103 0 
-98 -104 0 
-98 -105 0 
-98 -106 0 
-98 -107 0 
-98 -108 0 
-98 -109 0 
-98 -110 0 
-98 -111 0 
-98 -112 0 
-98 -113 0 
-98 -114 0 
-99 -89 0 
-99 -90 0 
-99 -91 0 
-99 -92 0 
-99 -93 0 
-99 -94 0 
-99 -95 0 
-99 -96 0 
-99 -97 0 
-99 -98 0 
-99 -100 0 
-99 -101 0 
-99 -102 0 
-99 -103 0 
-99 -104 0 
-99 -105 0 
-99 -106 0 
-99 -107 0 
-99 -108 0 
-99 -109 0 
-99 -110 0 
-99 -111 0 
-99 -112 0 
-99 -113 0 
-99 -114 0 
-100 -89 0 
-100 -90 0 
-100 -91 0 
-100 -92 0 
-100 -93 0 
-100 -94 0 
-100 -95 0 
-100 -96 0 
-100 -97 0 
-100 -98 0 
-100 -99 0 
-100 -101 0 
-100 -102 0 
-100 -103 0 
-100 -104 0 
-100 -105 0 
-100 -106 0 
-100 -107 0 
-100 -108 0 
-100 -109 0 
-100 -110 0 
-100 -111 0 
-100 -112 0 
-100 -113 0 
-100 -114 0 
-101 -89 0 
-101 -90 0 
-101 -91 0 
-101 -92 0 
-101 -93 0 
-101 -94 0 
-101 -95 0 
-101 -96 0 
-101 -97 0 
-101 -98 0 
-101 -99 0 
-101 -100 0 
-101 -102 0 
-101 -103 0 
-101 -104 0 
-101 -105 0 
-101 -106 0 
-101 -107 0 
-101 -108 0 
-101 -109 0 
-101 -110 0 
-101 -111 0 
-101 -112 0 
-101 -113 0 
-101 -114 0 
-102 -89 0 
-102 -90 0 
-102 -91 0 
-102 -92 0 
-102 -93 0 
-102 -94 0 
-102 -95 0 
-102 -96 0 
-102 -97 0 
-102 -98 0 
-102 -99 0 
-102 -100 0 
-102 -101 0 
-102 -103 0 
-102 -104 0 
-102 -105 0 
-102 -106 0 
-102 -107 0 
-102 -108 0 
-102 -109 0 
-102 -110 0 
-102 -111 0 
-102 -112 0 
-102 -113 0 
-102 -114 0 
-103 -89 0 
-103 -90 0 
-103 -91 0 
-103 -92 0 
-103 -93 0 
-103 -94 0 
-103 -95 0 
-103 -96 0 
-103 -97 0 
-103 -98 0 
-103 -99 0 
-103 -100 0 
-103 -101 0 
-103 -102 0 
-103 -104 0 
-103 -105 0 
-103 -106 0 
-103 -107 0 
-103 -108 0 
-103 -109 0 
-103 -110 0 
-103 -111 0 
-103 -112 0 
-103 -113 0 
-103 -114 0 
-104 -89 0 
-104 -90 0 
-104 -91 0 
-104 -92 0 
-104 -93 0 
-104 -94 0 
-104 -95 0 
-104 -96 0 
-104 -97 0 
-104 -98 0 
-104 -99 0 
-104 -100 0 
-104 -101 0 
-104 -102 0 
-104 -103 0 
-104 -105 0 
-104 -106 0 
-104 -107 0 
-104 -108 0 
-104 -109 0 
-104 -110 0 
-104 -111 0 
-104 -112 0 
-104 -113 0 
-104 -114 0 
-105 -89 0 
-105 -90 0 
-105 -91 0 
-105 -92 0 
-105 -93 0 
-105 -94 0 
-105 -95 0 
-105 -96 0 
-105 -97 0 
-105 -98 0 
-105 -99 0 
-105 -100 0 
-105 -101 0 
-105 -102 0 
-105 -103 0 
-105 -104 0 
-105 -106 0 
-105 -107 0 
-105 -108 0 
-105 -109 0 
-105 -110 0 
-105 -111 0 
-105 -112 0 
-105 -113 0 
-105 -114 0 
-106 -89 0 
-106 -90 0 
-106 -91 0 
-106 -92 0 
-106 -93 0 
-106 -94 0 
-106 -95 0 
-106 -96 0 
-106 -97 0 
-106 -98 0 
-106 -99 0 
-106 -100 0 
-106 -101 0 
-106 -102 0 
-106 -103 0 
-106 -104 0 
-106 -105 0 
-106 -107 0 
-106 -108 0 
-106 -109 0 
-106 -110 0 
-106 -111 0 
-106 -112 0 
-106 -113 0 
-106 -114 0 
-107 -89 0 
-107 -90 0 
-107 -91 0 
-107 -92 0 
-107 -93 0 
-107 -94 0 
-107 -95 0 
-107 -96 0 
-107 -97 0 
-107 -98 0 
-107 -99 0 
-107 -100 0 
-107 -101 0 
-107 -102 0 
-107 -103 0 
-107 -104 0 
-107 -105 0 
-107 -106 0 
-107 -108 0 
-107 -109 0 
-107 -110 0 
-107 -111 0 
-107 -112 0 
-107 -113 0 
-107 -114 0 
-108 -89 0 
-108 -90 0 
-108 -91 0 
-108 -92 0 
-108 -93 0 
-108 -94 0 
-108 -95 0 
-108 -96 0 
-108 -97 0 
-108 -98 0 
-108 -99 0 
-108 -100 0 
-108 -101 0 
-108 -102 0 
-108 -103 0 
-108 -104 0 
-108 -105 0 
-108 -106 0 
-108 -107 0 
-108 -109 0 
-108 -110 0 
-108 -111 0 
-108 -112 0 
-108 -113 0 
-108 -114 0 
-109 -89 0 
-109 -90 0 
-109 -91 0 
-109 -92 0 
-109 -93 0 
-109 -94 0 
-109 -95 0 
-109 -96 0 
-109 -97 0 
-109 -98 0 
-109 -99 0 
-109 -100 0 
-109 -101 0 
-109 -102 0 
-109 -103 0 
-109 -104 0 
-109 -105 0 
-109 -106 0 
-109 -107 0 
-109 -108 0 
-109 -110 0 
-109 -111 0 
-109 -112 0 
-109 -113 0 
-109 -114 0 
-110 -89 0 
-110 -90 0 
-110 -91 0 
-110 -92 0 
-110 -93 0 
-110 -94 0 
-110 -95 0 
-110 -96 0 
-110 -97 0 
-110 -98 0 
-110 -99 0 
-110 -100 0 
-110 -101 0 
-110 -102 0 
-110 -103 0 
-110 -104 0 
-110 -105 0 
-110 -106 0 
-110 -107 0 
-110 -108 0 
-110 -109 0 
-110 -111 0 
-110 -112 0 
-110 -113 0 
-110 -114 0 
-111 -89 0 
-111 -90 0 
-111 -91 0 
-111 -92 0 
-111 -93 0 
-111 -94 0 
-111 -95 0 
-111 -96 0 
-111 -97 0 
-111 -98 0 
-111 -99 0 
-111 -100 0 
-111 -101 0 
-111 -102 0 
-111 -103 0 
-111 -104 0 
-111 -105 0 
-111 -106 0 
-111 -107 0 
-111 -108 0 
-111 -109 0 
-111 -110 0 
-111 -112 0 
-111 -113 0 
-111 -114 0 
-112 -89 0 
-112 -90 0 
-112 -91 0 
-112 -92 0 
-112 -93 0 
-112 -94 0 
-112 -95 0 
-112 -96 0 
-112 -97 0 
-112 -98 0 
-112 -99 0 
-112 -100 0 
-112 -101 0 
-112 -102 0 
-112 -103 0 
-112 -104 0 
-112 -105 0 
-112 -106 0 
-112 -107 0 
-112 -108 0 
-112 -109 0 
-112 -110 0 
-112 -111 0 
-112 -113 0 
-112 -114 0 
-113 -89 0 
-113 -90 0 
-113 -91 0 
-113 -92 0 
-113 -93 0 
-113 -94 0 
-113 -95 0 
-113 -96 0 
-113 -97 0 
-113 -98 0 
-113 -99 0 
-113 -100 0 
-113 -101 0 
-113 -102 0 
-113 -103 0 
-113 -104 0 
-113 -105 0 
-113 -106 0 
-113 -107 0 
-113 -108 0 
-113 -109 0 
-113 -110 0 
-113 -111 0 
-113 -112 0 
-113 -114 0 
-114 -89 0 
-114 -90 0 
-114 -91 0 
-114 -92 0 
-114 -93 0 
-114 -94 0 
-114 -95 0 
-114 -96 0 
-114 -97 0 
-114 -98 0 
-114 -99 0 
-114 -100 0 
-114 -101 0 
-114 -102 0 
-114 -103 0 
-114 -104 0 
-114 -105 0 
-114 -106 0 
-114 -107 0 
-114 -108 0 
-114 -109 0 
-114 -110 0 
-114 -111 0 
-114 -112 0 
-114 -113 0 
-5 6 7 8 9 10 11 12 13 14 15 16 17 18 19 20 21 22 23 24 25 26 27 28 29 30 31 0 
-61 62 63 64 65 66 67 68 69 70 71 72 73 74 75 76 77 78 79 80 81 82 83 84 85 86 87 0 
-32 33 34 35 36 37 38 39 40 41 42 43 44 45 46 47 48 49 50 51 52 53 54 55 56 57 58 0 
-88 89 90 91 92 93 94 95 96 97 98 99 100 101 102 103 104 105 106 107 108 109 110 111 112 113 114 0 
- 
- 
-121 32 0 
- 
- 
-122 88 0 
- 
-123 -14 59 0 
- 
-124 -70 115 0 
- 
- 
-123 32 0 
- 
- 
-124 88 0 
- 
-125 -11 59 0 
- 
-126 -67 115 0 
- 
- 
-127 32 0 
- 
- 
-128 88 0 
- 
-125 -13 59 0 
- 
-126 -69 115 0 
- 
-129 32 0 
- 
-130 88 0 
-5 -16 59 0 
-61 -72 115 0 
- 
-131 32 0 
- 
-132 88 0 
-5 -15 59 0 
-61 -71 115 0 
- 
-121 32 0 
- 
-122 88 0 
-5 -14 59 0 
-61 -70 115 0 
- 
-127 32 14 0 
- 
-128 88 70 0 
-5 -13 59 41 0 
-61 -69 115 97 0 
- 
-125 32 11 13 0 
- 
-126 88 67 69 0 
-5 -20 59 38 40 0 
-61 -76 115 94 96 0 
- 
-133 32 0 
- 
-134 88 0 
-5 -19 59 0 
-61 -75 115 0 
- 
-135 32 0 
- 
-136 88 0 
-5 -18 59 0 
-61 -74 115 0 
- 
-137 32 0 
- 
-138 88 0 
-5 -17 59 0 
-61 -73 115 0 
- 
-139 32 0 
- 
-140 88 0 
-5 -8 59 0 
-61 -64 115 0 
- 
-141 32 0 
- 
-142 88 0 
-5 -7 59 0 
-61 -63 115 0 
- 
-143 32 0 
- 
-144 88 0 
-5 -6 59 0 
-61 -62 115 0 
- 
-145 32 0 
- 
-146 88 0 
-5 -12 59 0 
-61 -68 115 0 
- 
-123 32 14 0 
- 
-124 88 70 0 
-5 -11 59 41 0 
-61 -67 115 97 0 
- 
-147 32 0 
- 
-148 88 0 
-5 -10 59 0 
-61 -66 115 0 
- 
-149 32 0 
- 
-150 88 0 
-5 -9 59 0 
-61 -65 115 0 
- 
-151 32 0 
- 
-152 88 0 
-5 -31 59 0 
-61 -87 115 0 
- 
-153 32 0 
- 
-154 88 0 
-5 -30 59 0 
-61 -86 115 0 
- 
-155 32 0 
- 
-156 88 0 
-5 -29 59 0 
-61 -85 115 0 
- 
-157 32 0 
- 
-158 88 0 
-5 -24 59 0 
-61 -80 115 0 
- 
-159 32 0 
- 
-160 88 0 
-5 -23 59 0 
-61 -79 115 0 
- 
-161 32 0 
- 
-162 88 0 
-5 -22 59 0 
-61 -78 115 0 
- 
-163 32 0 
- 
-164 88 0 
-5 -21 59 0 
-61 -77 115 0 
- 
-165 32 0 
- 
-166 88 0 
-5 -28 59 0 
-61 -84 115 0 
- 
-167 32 0 
- 
-168 88 0 
-5 -27 59 0 
-61 -83 115 0 
- 
-169 32 0 
- 
-170 88 0 
-5 -26 59 0 
-61 -82 115 0 
- 
-171 32 0 
- 
-172 88 0 
-5 -25 59 0 
-61 -81 115 0 
- 
- 
-121 32 0 
- 
- 
-122 88 0 
- 
-127 -14 59 0 
- 
-128 -70 115 0 
-2 6 7 8 9 10 11 12 13 14 15 16 17 18 19 20 21 22 23 24 25 26 27 28 29 30 31 0 
-3 33 34 35 36 37 38 39 40 41 42 43 44 45 46 47 48 49 50 51 52 53 54 55 56 57 58 0 
-32 62 63 64 65 66 67 68 69 70 71 72 73 74 75 76 77 78 79 80 81 82 83 84 85 86 87 0 
-59 89 90 91 92 93 94 95 96 97 98 99 100 101 102 103 104 105 106 107 108 109 110 111 112 113 114 0 
- 
- 
-173 32 0 
- 
- 
-174 59 0 
- 
-175 -14 88 0 
- 
-176 -41 115 0 
- 
- 
-175 32 0 
- 
- 
-176 59 0 
- 
-177 -11 88 0 
- 
-178 -38 115 0 
- 
- 
-179 32 0 
- 
- 
-180 59 0 
- 
-177 -13 88 0 
- 
-178 -40 115 0 
- 
-181 32 0 
- 
-182 59 0 
-2 -16 88 0 
-3 -43 115 0 
- 
-183 32 0 
- 
-184 59 0 
-2 -15 88 0 
-3 -42 115 0 
- 
-173 32 0 
- 
-174 59 0 
-2 -14 88 0 
-3 -41 115 0 
- 
-179 32 14 0 
- 
-180 59 41 0 
-2 -13 88 70 0 
-3 -40 115 97 0 
- 
-177 32 11 13 0 
- 
-178 59 38 40 0 
-2 -20 88 67 69 0 
-3 -47 115 94 96 0 
- 
-185 32 0 
- 
-186 59 0 
-2 -19 88 0 
-3 -46 115 0 
- 
-187 32 0 
- 
-188 59 0 
-2 -18 88 0 
-3 -45 115 0 
- 
-189 32 0 
- 
-190 59 0 
-2 -17 88 0 
-3 -44 115 0 
- 
-191 32 0 
- 
-192 59 0 
-2 -8 88 0 
-3 -35 115 0 
- 
-193 32 0 
- 
-194 59 0 
-2 -7 88 0 
-3 -34 115 0 
- 
-195 32 0 
- 
-196 59 0 
-2 -6 88 0 
-3 -33 115 0 
- 
-197 32 0 
- 
-198 59 0 
-2 -12 88 0 
-3 -39 115 0 
- 
-175 32 14 0 
- 
-176 59 41 0 
-2 -11 88 70 0 
-3 -38 115 97 0 
- 
-199 32 0 
- 
-200 59 0 
-2 -10 88 0 
-3 -37 115 0 
- 
-201 32 0 
- 
-202 59 0 
-2 -9 88 0 
-3 -36 115 0 
- 
-203 32 0 
- 
-204 59 0 
-2 -31 88 0 
-3 -58 115 0 
- 
-205 32 0 
- 
-206 59 0 
-2 -30 88 0 
-3 -57 115 0 
- 
-207 32 0 
- 
-208 59 0 
-2 -29 88 0 
-3 -56 115 0 
- 
-209 32 0 
- 
-210 59 0 
-2 -24 88 0 
-3 -51 115 0 
- 
-211 32 0 
- 
-212 59 0 
-2 -23 88 0 
-3 -50 115 0 
- 
-213 32 0 
- 
-214 59 0 
-2 -22 88 0 
-3 -49 115 0 
- 
-215 32 0 
- 
-216 59 0 
-2 -21 88 0 
-3 -48 115 0 
- 
-217 32 0 
- 
-218 59 0 
-2 -28 88 0 
-3 -55 115 0 
- 
-219 32 0 
- 
-220 59 0 
-2 -27 88 0 
-3 -54 115 0 
- 
-221 32 0 
- 
-222 59 0 
-2 -26 88 0 
-3 -53 115 0 
- 
-223 32 0 
- 
-224 59 0 
-2 -25 88 0 
-3 -52 115 0 
- 
- 
-173 32 0 
- 
- 
-174 59 0 
- 
-179 -14 88 0 
- 
-180 -41 115 0 
