declmtd/1hw/micro.ans
#_0_0 
#_0_1 
#_0_2 
#_0_3 
#_1_0 
-a_1_1 
-b_1_1 
-c_1_1 
-d_1_1 
-e_1_1 
-f_1_1 
-g_1_1 
-h_1_1 
-i_1_1 
-j_1_1 
-k_1_1 
-l_1_1 
-m_1_1 
-n_1_1 
o_1_1 
-p_1_1 
-q_1_1 
-r_1_1 
-s_1_1 
-t_1_1 
-u_1_1 
-v_1_1 
-w_1_1 
-x_1_1 
-y_1_1 
-z_1_1 
-a_1_2 
-b_1_2 
-c_1_2 
-d_1_2 
-e_1_2 
f_1_2 
-g_1_2 
-h_1_2 
-i_1_2 
-j_1_2 
-k_1_2 
-l_1_2 
-m_1_2 
-n_1_2 
-o_1_2 
-p_1_2 
-q_1_2 
-r_1_2 
-s_1_2 
-t_1_2 
-u_1_2 
-v_1_2 
-w_1_2 
-x_1_2 
-y_1_2 
-z_1_2 
#_1_3 
#_2_0 
-a_2_1 
-b_2_1 
-c_2_1 
-d_2_1 
-e_2_1 
f_2_1 
-g_2_1 
-h_2_1 
-i_2_1 
-j_2_1 
-k_2_1 
-l_2_1 
-m_2_1 
-n_2_1 
-o_2_1 
-p_2_1 
-q_2_1 
-r_2_1 
-s_2_1 
-t_2_1 
-u_2_1 
-v_2_1 
-w_2_1 
-x_2_1 
-y_2_1 
-z_2_1 
-a_2_2 
-b_2_2 
-c_2_2 
-d_2_2 
-e_2_2 
-f_2_2 
-g_2_2 
-h_2_2 
i_2_2 
-j_2_2 
-k_2_2 
-l_2_2 
-m_2_2 
-n_2_2 
-o_2_2 
-p_2_2 
-q_2_2 
-r_2_2 
-s_2_2 
-t_2_2 
-u_2_2 
-v_2_2 
-w_2_2 
-x_2_2 
-y_2_2 
-z_2_2 
#_2_3 
#_3_0 
#_3_1 
#_3_2 
#_3_3 
-#_1_1 
-#_1_2 
-#_2_1 
