declmtd/1hw/micro.output
Z-Chaff Version: zChaff 2007.3.12
Solving micro.cnf ......

c 2637 Clauses are true, Verify Solution successful.
Instance Satisfiable
1 2 3 4 5 -6 -7 -8 -9 -10 -11 -12 -13 -14 -15 -16 -17 -18 -19 20 -21 -22 -23 -24 -25 -26 -27 -28 -29 -30 -31 -32 -33 -34 -35 -36 37 -38 -39 -40 -41 -42 -43 -44 -45 -46 -47 -48 -49 -50 -51 -52 -53 -54 -55 -56 -57 58 59 -60 -61 -62 -63 -64 65 -66 -67 -68 -69 -70 -71 -72 -73 -74 -75 -76 -77 -78 -79 -80 -81 -82 -83 -84 -85 -86 -87 -88 -89 -90 -91 -92 -93 94 -95 -96 -97 -98 -99 -100 -101 -102 -103 -104 -105 -106 -107 -108 -109 -110 -111 112 113 114 115 116 -117 -118 -119 Random Seed Used				0
Max Decision Level				2
Num. of Decisions				5
( Stack + Vsids + Shrinking Decisions )		0 + 4 + 0
Original Num Variables				119
Original Num Clauses				2636
Original Num Literals				5388
Added Conflict Clauses				1
Num of Shrinkings				0
Deleted Conflict Clauses			0
Deleted Clauses					0
Added Conflict Literals				2
Deleted (Total) Literals			0
Number of Implication				197
Total Run Time					0.001
RESULT:	SAT
